(set-option :produce-models true)
(set-logic QF_UF)
(declare-fun p7() Bool)
(declare-fun p61() Bool)
(declare-fun p1() Bool)
(declare-fun p50() Bool)
(declare-fun p16() Bool)
(declare-fun p63() Bool)
(declare-fun p68() Bool)
(declare-fun p28() Bool)
(declare-fun p18() Bool)
(declare-fun p36() Bool)
(declare-fun p58() Bool)
(declare-fun p14() Bool)
(declare-fun p40() Bool)
(declare-fun p65() Bool)
(declare-fun p49() Bool)
(declare-fun p4() Bool)
(declare-fun p6() Bool)
(declare-fun p37() Bool)
(declare-fun p39() Bool)
(declare-fun p42() Bool)
(declare-fun p15() Bool)
(declare-fun p47() Bool)
(declare-fun p44() Bool)
(declare-fun p48() Bool)
(declare-fun p31() Bool)
(declare-fun p52() Bool)
(declare-fun p33() Bool)
(declare-fun p62() Bool)
(declare-fun p9() Bool)
(declare-fun p45() Bool)
(declare-fun p66() Bool)
(declare-fun p3() Bool)
(declare-fun p34() Bool)
(declare-fun p26() Bool)
(declare-fun p64() Bool)
(declare-fun p22() Bool)
(declare-fun p32() Bool)
(declare-fun p12() Bool)
(declare-fun p20() Bool)
(declare-fun p24() Bool)
(declare-fun p29() Bool)
(declare-fun p30() Bool)
(declare-fun p35() Bool)
(declare-fun p51() Bool)
(declare-fun p11() Bool)
(declare-fun p69() Bool)
(declare-fun p2() Bool)
(declare-fun p60() Bool)
(declare-fun p55() Bool)
(declare-fun p23() Bool)
(declare-fun p54() Bool)
(declare-fun p27() Bool)
(declare-fun p25() Bool)
(declare-fun p46() Bool)
(declare-fun p10() Bool)
(declare-fun p38() Bool)
(declare-fun p57() Bool)
(declare-fun p17() Bool)
(declare-fun p8() Bool)
(declare-fun p21() Bool)
(declare-fun p56() Bool)
(declare-fun p67() Bool)
(declare-fun p0() Bool)
(declare-fun p19() Bool)
(declare-fun p5() Bool)
(declare-fun p13() Bool)
(declare-fun p41() Bool)
(declare-fun p43() Bool)
(declare-fun p59() Bool)
(declare-fun p53() Bool)
(assert
(and (or (not p7) p61 (not p1)) (or p50 (not p16) p63) (or (not p68) (not p28) p18) (or (not p36) p28 p58) (or p14 (not p40) (not p65)) (or (not p49) (not p4) (not p6)) (or p37 p39 p42) (or p15 p68 p47) (or (not p44) p48 p31) (or p52 (not p33) (not p61)) (or p62 p9 (not p45)) (or p66 p3 (not p34)) (or p36 p26 (not p36)) (or p64 p44 (not p22)) (or p32 p12 (not p39)) (or p68 p20 p33) (or (not p24) (not p29) p39) (or p30 p49 p63) (or (not p50) (not p36) (not p35)) (or (not p51) (not p44) (not p40)) (or (not p11) (not p7) (not p64)) (or p24 (not p1) p34) (or (not p69) p2 p60) (or p14 (not p55) (not p23)) (or p34 (not p54) p29) (or (not p27) p69 (not p25)) (or p11 p45 p24) (or p20 p30 p27) (or p66 (not p26) (not p11)) (or (not p22) (not p44) (not p20)) (or (not p34) (not p3) p46) (or p10 p3 (not p62)) (or p38 (not p10) p63) (or p10 p57 p34) (or p42 (not p17) (not p50)) (or p62 p16 p8) (or (not p33) p36 p21) (or p32 p8 p10) (or p66 p46 p44) (or (not p31) (not p9) p49) (or (not p1) p56 p14) (or (not p8) (not p67) (not p29)) (or p0 p58 (not p40)) (or p23 (not p12) (not p39)) (or (not p31) (not p6) p9) (or (not p10) p45 p19) (or p42 (not p65) p69) (or (not p16) (not p40) (not p5)) (or p26 (not p63) p13) (or (not p7) p36 p12) (or (not p4) (not p44) (not p54)) (or (not p36) p18 p42) (or (not p52) p23 p10) (or (not p63) p7 p33) (or p30 (not p51) p41) (or p17 (not p58) p2) (or p18 (not p33) (not p13)) (or p21 p24 (not p22)) (or (not p24) p60 (not p46)) (or (not p45) p47 (not p41)) (or p33 p12 (not p52)) (or (not p66) (not p67) p17) (or (not p3) (not p48) p23) (or (not p34) p35 (not p69)) (or (not p46) p49 p33) (or (not p64) p52 (not p30)) (or (not p11) p52 (not p50)) (or p60 p61 (not p9)) (or (not p54) p34 p56) (or (not p37) p34 (not p43)) (or p9 p37 (not p18)) (or (not p21) (not p48) (not p2)) (or p52 (not p69) p10) (or (not p29) p36 p68) (or p33 (not p36) p61) (or (not p10) p24 (not p59)) (or p34 (not p37) p32) (or (not p68) (not p12) (not p0)) (or (not p9) (not p51) (not p8)) (or (not p37) (not p49) p55) (or (not p34) (not p35) p9) (or (not p56) p60 (not p44)) (or (not p52) p38 p22) (or p18 (not p5) p42) (or (not p2) p42 p59) (or p15 p33 p4) (or p63 p41 (not p18)) (or (not p18) (not p56) p16) (or p34 p62 (not p42)) (or p41 p25 (not p9)) (or p46 (not p12) (not p48)) (or (not p68) p23 p31) (or p63 (not p50) (not p52)) (or (not p12) p51 (not p58)) (or (not p47) (not p38) p12) (or (not p60) (not p49) (not p11)) (or p50 p66 (not p41)) (or p65 p30 (not p31)) (or (not p41) p8 (not p68)) (or (not p51) p11 p36) (or (not p11) (not p5) (not p53)) (or p53 p19 (not p58)) (or p0 (not p5) (not p59)) (or p6 (not p7) p19) (or p48 (not p40) p33) (or (not p17) p20 (not p14)) (or p33 p42 (not p60)) (or (not p40) (not p51) (not p33)) (or p54 p65 (not p24)) (or (not p36) p46 (not p16)) (or (not p9) (not p60) p16) (or (not p56) (not p5) (not p51)) (or (not p33) p61 (not p29)) (or p50 (not p25) p37) (or (not p24) p7 (not p1)) (or (not p15) p66 p8) (or p27 p46 (not p30)) (or (not p0) (not p3) p56) (or p61 (not p37) p43) (or p27 p25 p68) (or p31 p11 (not p38)) (or (not p13) p19 p45) (or p47 (not p42) (not p27)) (or p20 p30 p52) (or p44 (not p43) (not p27)) (or p1 p4 p44) (or (not p6) (not p26) (not p50)) (or p13 (not p18) (not p28)) (or (not p58) p12 (not p3)) (or p63 p61 (not p68)) (or (not p69) p27 (not p42)) (or p65 (not p56) (not p49)) (or p50 p40 (not p65)) (or (not p46) p14 p6) (or (not p7) (not p58) (not p11)) (or p29 (not p62) (not p9)) (or (not p39) p26 p24) (or (not p63) p30 (not p66)) (or (not p66) p62 (not p10)) (or (not p3) (not p39) (not p57)) (or p5 p63 p16) (or (not p35) (not p49) (not p34)) (or (not p4) p15 p37) (or (not p31) p20 p5) (or (not p52) (not p19) p45) (or (not p65) (not p17) p28) (or p52 p28 p69) (or p47 (not p33) p7) (or (not p9) p24 p63) (or p14 (not p46) p35) (or p56 p1 (not p30)) (or (not p62) (not p17) (not p18)) (or p22 p62 (not p46)) (or p8 (not p16) (not p61)) (or (not p1) (not p27) (not p1)) (or (not p68) (not p65) (not p4)) (or (not p36) p16 p48) (or p37 (not p39) p5) (or p34 p50 (not p18)) (or (not p31) (not p47) (not p7)) (or (not p23) (not p12) (not p42)) (or (not p58) p41 (not p21)) (or p36 (not p12) p14) (or p59 p9 p2) (or p21 p41 p19) (or (not p14) (not p19) p58) (or (not p43) (not p4) p23) (or p30 p22 p67) (or (not p28) p7 p36) (or p0 p42 p9) (or p15 (not p50) (not p47)) (or p58 (not p8) (not p21)) (or (not p29) (not p60) (not p55)) (or p7 (not p50) p6) (or (not p11) p66 (not p40)) (or (not p7) p50 (not p11)) (or (not p20) (not p64) p2) (or p14 p12 (not p18)) (or (not p7) p38 (not p23)) (or (not p14) p43 p64) (or p30 (not p63) p63) (or p53 p35 p39) (or (not p22) (not p69) (not p39)) (or p68 p5 p35) (or p42 (not p45) (not p22)) (or (not p27) p23 p30) (or p6 p15 (not p10)) (or p5 (not p10) (not p69)) (or p45 (not p65) (not p51)) (or (not p52) (not p37) p51) (or (not p67) p29 (not p20)) (or (not p5) p3 p1) (or p51 (not p24) p15) (or (not p51) (not p42) p2) (or (not p68) (not p22) p61) (or (not p39) p56 p11) (or p46 p32 p6) (or (not p50) p7 p34) (or p41 p57 p43) (or (not p60) p19 p52) (or p67 p61 (not p7)) (or p32 (not p30) (not p23)) (or p55 (not p61) (not p49)) (or p52 (not p19) (not p59)) (or p64 p54 (not p60)) (or (not p16) (not p9) (not p29)) (or (not p51) (not p40) p2) (or p15 (not p18) (not p47)) (or (not p2) p7 (not p13)) (or (not p54) p58 p46) (or (not p60) (not p47) (not p16)) (or p57 (not p47) (not p50)) (or (not p37) (not p59) p16) (or p32 p15 (not p37)) (or (not p10) (not p63) p60) (or p1 (not p7) (not p43)) (or p68 (not p22) (not p5)) (or (not p59) p3 (not p26)) (or (not p51) p40 (not p48)) (or p57 (not p17) p21) (or p47 p12 p51) (or p10 (not p43) p42) (or (not p42) (not p37) p57) (or (not p48) p29 p67) (or p11 (not p67) (not p34)) (or p37 p62 p24) (or (not p0) (not p32) p20) (or (not p43) (not p25) (not p8)) (or p12 (not p15) p39) (or (not p2) p11 p33) (or (not p27) p7 p63) (or p69 p63 (not p65)) (or (not p31) p39 p42) (or p44 (not p54) (not p18)) (or (not p43) (not p6) p51) (or (not p56) (not p60) p57) (or p54 p49 p16) (or (not p5) (not p42) p20) (or p53 p43 (not p58)) (or p6 p62 (not p26)) (or p56 p2 p34) (or p5 p21 p20) (or (not p7) (not p28) p64) (or p26 (not p27) p13) (or p11 (not p4) (not p29)) (or (not p8) (not p5) (not p21)) (or p18 (not p3) (not p0)) (or p57 (not p36) p56) (or p63 p47 (not p41)) (or (not p43) (not p11) (not p37)) (or p33 (not p15) p36) (or (not p47) (not p65) (not p4)) (or (not p64) p24 (not p64)) (or p46 (not p64) (not p38)) (or (not p63) (not p30) (not p42)) (or p51 p54 p38) (or (not p47) p55 (not p20)) (or p69 (not p49) (not p21)) (or (not p11) (not p23) p35) (or (not p48) p20 p8) (or p21 (not p18) p33) (or p48 (not p60) p36) (or (not p57) (not p4) (not p11)) (or (not p29) p63 (not p34)) (or p20 (not p20) p59) (or p11 (not p48) (not p0)) (or (not p59) p26 p38) (or p1 (not p3) (not p17)) (or (not p23) (not p17) (not p46)) (or p8 (not p16) p55) (or p0 (not p31) (not p37)) (or (not p49) p60 p68) (or p18 p5 (not p68)) (or (not p68) p55 (not p1)) (or p16 (not p1) p65) (or (not p64) (not p20) (not p8)) (or (not p46) p3 p66) (or p57 p35 (not p1)) (or (not p0) (not p7) (not p24)) (or p18 p0 p20) (or p36 p13 p27) (or (not p9) (not p16) (not p45)) (or p52 (not p26) (not p33)) (or (not p14) p15 p41) (or (not p46) (not p64) (not p7)) (or p67 (not p10) (not p26)) (or p68 (not p28) p53) (or (not p2) (not p6) p41) (or p41 (not p48) p22) (or p44 p10 p15) (or (not p7) (not p10) p0) (or p40 p31 (not p51)) (or (not p28) p21 (not p45)) (or (not p8) (not p67) p45) (or (not p30) p50 (not p19)) (or p36 p7 p52) (or p24 p14 p8))
)
(check-sat)
(get-model)
